SCIP version 5.0.0 [precision: 8 byte] [memory: block] [mode: optimized] [LP solver: NONE] [GitHash: 3bbd232]
Copyright (C) 2002-2017 Konrad-Zuse-Zentrum fuer Informationstechnik Berlin (ZIB)

External codes: 
  Readline EditLine w  GNU library for command line editing (gnu.org/s/readline)
  CppAD 20160000.1     Algorithmic Differentiation of C++ algorithms developed by B. Bell (www.coin-or.org/CppAD)
  ZLIB 1.2.5           General purpose compression library by J. Gailly and M. Adler (zlib.net)
  GMP 6.1.2            GNU Multiple Precision Arithmetic Library developed by T. Granlund (gmplib.org)

user parameter file <scip.set> not found - using default parameters

read problem <../../Split_data/output/parkin/1/4_sample_parkin.logreg>
============

File name	:	../../Split_data/output/parkin/1/4_sample_parkin.logreg
Problem name 	:	4_sample_parkin
Number of data	:	156
Number of var	:	22
The given data has linear independence

[dim=1] time: 0.003105
[dim=2] time: 0.005766
[dim=3] time: 0.008591
[dim=4] time: 0.010774
[dim=5] time: 0.013013
[dim=6] time: 0.01519
[dim=7] Time of forward = 0.017395sec.
AIC: 101.798
k: 6

[dim=22] time: 0.040272
[dim=21] time: 0.07113
[dim=20] time: 0.103353
[dim=19] time: 0.213177
[dim=18] time: 0.217294
[dim=17] time: 0.220455
[dim=16] time: 0.223306
[dim=15] time: 0.225179
[dim=14] time: 0.22757
[dim=13] time: 0.229858
[dim=12] time: 0.231852
[dim=11] time: 0.234056
[dim=10] time: 0.235914
[dim=9] Time of backward = 0.237252sec.
AIC: 99.7774
k: 10
